50
6942

294 137
559 492
162 340
642 886
531 791
294 692
560 191
899 68
456 102
431 481
180 32
703 153
567 57
821 267
35 239
566 555
954 427
458 384
737 463
915 802
907 645
951 791
668 599
887 636
385 822
116 353
204 771
740 543
379 42
961 677
806 552
730 936
883 457
429 523
458 812
149 187
86 503
204 877
71 370
669 628
316 820
13 78
760 3
225 62
438 643
309 940
458 977
157 559
653 164
679 864
